c CNF file corresponding to a (partial) station packing problem.
p cnf 3226 229
1 2 3 4 5 6 7 8 9 10 11 12 13 14 0
-1 -2 0
-1 -3 0
-1 -4 0
-1 -5 0
-1 -6 0
-1 -7 0
-1 -8 0
-1 -9 0
-1 -10 0
-1 -11 0
-1 -12 0
-1 -13 0
-1 -14 0
-2 -3 0
-2 -4 0
-2 -5 0
-2 -6 0
-2 -7 0
-2 -8 0
-2 -9 0
-2 -10 0
-2 -11 0
-2 -12 0
-2 -13 0
-2 -14 0
-3 -4 0
-3 -5 0
-3 -6 0
-3 -7 0
-3 -8 0
-3 -9 0
-3 -10 0
-3 -11 0
-3 -12 0
-3 -13 0
-3 -14 0
-4 -5 0
-4 -6 0
-4 -7 0
-4 -8 0
-4 -9 0
-4 -10 0
-4 -11 0
-4 -12 0
-4 -13 0
-4 -14 0
-5 -6 0
-5 -7 0
-5 -8 0
-5 -9 0
-5 -10 0
-5 -11 0
-5 -12 0
-5 -13 0
-5 -14 0
-6 -7 0
-6 -8 0
-6 -9 0
-6 -10 0
-6 -11 0
-6 -12 0
-6 -13 0
-6 -14 0
-7 -8 0
-7 -9 0
-7 -10 0
-7 -11 0
-7 -12 0
-7 -13 0
-7 -14 0
-8 -9 0
-8 -10 0
-8 -11 0
-8 -12 0
-8 -13 0
-8 -14 0
-9 -10 0
-9 -11 0
-9 -12 0
-9 -13 0
-9 -14 0
-10 -11 0
-10 -12 0
-10 -13 0
-10 -14 0
-11 -12 0
-11 -13 0
-11 -14 0
-12 -13 0
-12 -14 0
-13 -14 0
3210 3211 3212 3213 3214 3215 3216 3217 3218 3219 3220 3221 3222 3223 3224 3225 3226 0
-3210 -3211 0
-3210 -3212 0
-3210 -3213 0
-3210 -3214 0
-3210 -3215 0
-3210 -3216 0
-3210 -3217 0
-3210 -3218 0
-3210 -3219 0
-3210 -3220 0
-3210 -3221 0
-3210 -3222 0
-3210 -3223 0
-3210 -3224 0
-3210 -3225 0
-3210 -3226 0
-3211 -3212 0
-3211 -3213 0
-3211 -3214 0
-3211 -3215 0
-3211 -3216 0
-3211 -3217 0
-3211 -3218 0
-3211 -3219 0
-3211 -3220 0
-3211 -3221 0
-3211 -3222 0
-3211 -3223 0
-3211 -3224 0
-3211 -3225 0
-3211 -3226 0
-3212 -3213 0
-3212 -3214 0
-3212 -3215 0
-3212 -3216 0
-3212 -3217 0
-3212 -3218 0
-3212 -3219 0
-3212 -3220 0
-3212 -3221 0
-3212 -3222 0
-3212 -3223 0
-3212 -3224 0
-3212 -3225 0
-3212 -3226 0
-3213 -3214 0
-3213 -3215 0
-3213 -3216 0
-3213 -3217 0
-3213 -3218 0
-3213 -3219 0
-3213 -3220 0
-3213 -3221 0
-3213 -3222 0
-3213 -3223 0
-3213 -3224 0
-3213 -3225 0
-3213 -3226 0
-3214 -3215 0
-3214 -3216 0
-3214 -3217 0
-3214 -3218 0
-3214 -3219 0
-3214 -3220 0
-3214 -3221 0
-3214 -3222 0
-3214 -3223 0
-3214 -3224 0
-3214 -3225 0
-3214 -3226 0
-3215 -3216 0
-3215 -3217 0
-3215 -3218 0
-3215 -3219 0
-3215 -3220 0
-3215 -3221 0
-3215 -3222 0
-3215 -3223 0
-3215 -3224 0
-3215 -3225 0
-3215 -3226 0
-3216 -3217 0
-3216 -3218 0
-3216 -3219 0
-3216 -3220 0
-3216 -3221 0
-3216 -3222 0
-3216 -3223 0
-3216 -3224 0
-3216 -3225 0
-3216 -3226 0
-3217 -3218 0
-3217 -3219 0
-3217 -3220 0
-3217 -3221 0
-3217 -3222 0
-3217 -3223 0
-3217 -3224 0
-3217 -3225 0
-3217 -3226 0
-3218 -3219 0
-3218 -3220 0
-3218 -3221 0
-3218 -3222 0
-3218 -3223 0
-3218 -3224 0
-3218 -3225 0
-3218 -3226 0
-3219 -3220 0
-3219 -3221 0
-3219 -3222 0
-3219 -3223 0
-3219 -3224 0
-3219 -3225 0
-3219 -3226 0
-3220 -3221 0
-3220 -3222 0
-3220 -3223 0
-3220 -3224 0
-3220 -3225 0
-3220 -3226 0
-3221 -3222 0
-3221 -3223 0
-3221 -3224 0
-3221 -3225 0
-3221 -3226 0
-3222 -3223 0
-3222 -3224 0
-3222 -3225 0
-3222 -3226 0
-3223 -3224 0
-3223 -3225 0
-3223 -3226 0
-3224 -3225 0
-3224 -3226 0
-3225 -3226 0
